;; produced by cvc5.drv ;;
(set-logic ALL)
(set-info :smt-lib-version 2.6)
;;; generated by SMT-LIB2 driver
;;; SMT-LIB2 driver: bit-vectors, common part
;;; SMT-LIB2: integer arithmetic
(declare-sort us_private 0)

(declare-const us_null_ext__ us_private)

(declare-sort integer 0)

;; "integer'int"
(declare-fun integerqtint (integer) Int)

;; "integer'axiom"
(assert
  (forall ((i integer))
    (and
      (<= (- 2147483648) (integerqtint i))
      (<= (integerqtint i) 2147483647))))

;; "in_range"
(define-fun in_range ((x Int)) Bool
  (and (<= (- 2147483648) x) (<= x 2147483647)))

;; "to_rep"
(define-fun to_rep ((x integer)) Int
  (integerqtint x))

;; "of_rep"
(declare-fun of_rep (Int) integer)

;; "inversion_axiom"
(assert
  (forall ((x integer)) (! (= (of_rep (to_rep x)) x) :pattern ((to_rep x)) )))

;; "range_axiom"
(assert
  (forall ((x integer)) (! (in_range (to_rep x)) :pattern ((to_rep x)) )))

;; "coerce_axiom"
(assert
  (forall ((x Int))
    (! (=> (in_range x) (= (to_rep (of_rep x)) x)) :pattern ((to_rep
                                                               (of_rep x))) )))

;; "in_range"
(define-fun in_range1 ((x Int)) Bool
  (and (<= 1 x) (<= x 2147483647)))

(declare-datatypes ((t 0))
  (((tqtmk (rec__first integer)(rec__last integer)))))

;; "mk"
(declare-fun mk (Int
  Int) t)

;; "mk_def"
(assert
  (forall ((f Int) (l Int))
    (! (=>
         (in_range f)
         (=>
           (in_range l)
           (and
             (= (to_rep (rec__first (mk f l))) f)
             (= (to_rep (rec__last (mk f l))) l)))) :pattern ((mk f l)) )))

;; "dynamic_property"
(define-fun dynamic_property ((range_first Int) (range_last Int) (low Int) (high Int)) Bool
  (and
    (in_range low)
    (and
      (in_range high)
      (=> (<= low high) (and (in_range1 low) (in_range1 high))))))

(declare-datatypes ((us_t 0))
  (((us_tqtmk (elts (Array Int integer))(rt t)))))

;; "to_array"
(define-fun to_array ((a us_t)) (Array Int integer)
  (elts a))

;; "of_array"
(define-fun of_array ((a (Array Int integer)) (f Int) (l Int)) us_t
  (us_tqtmk a (mk f l)))

;; "first"
(define-fun first ((a us_t)) Int
  (to_rep (rec__first (rt a))))

;; "last"
(define-fun last ((a us_t)) Int
  (to_rep (rec__last (rt a))))

;; "length"
(define-fun length ((a us_t)) Int
  (ite (<= (first a) (last a)) (+ (- (last a) (first a)) 1) 0))

(declare-const value__size Int)

(declare-const object__size Int)

(declare-const component__size Int)

(declare-const alignment Int)

;; "value__size_axiom"
(assert (<= 0 value__size))

;; "object__size_axiom"
(assert (<= 0 object__size))

;; "component__size_axiom"
(assert (<= 0 component__size))

;; "alignment_axiom"
(assert (<= 0 alignment))

(declare-const s1 us_t)

(declare-const s2 us_t)

(declare-const r__first integer)

(declare-const r__last integer)

;; "dynamic_invariant"
(define-fun dynamic_invariant ((temp___expr_189 us_t) (temp___is_init_185 Bool) (temp___skip_constant_186 Bool) (temp___do_toplevel_187 Bool) (temp___do_typ_inv_188 Bool)) Bool
  (and
    (=>
      (not (= temp___skip_constant_186 true))
      (dynamic_property
        1
        2147483647
        (first temp___expr_189)
        (last temp___expr_189)))
    (=>
      (= temp___is_init_185 true)
      (=> (= temp___do_toplevel_187 true) (= (first temp___expr_189) 1)))))

;; "dynamic_invariant"
(define-fun dynamic_invariant1 ((temp___expr_268 us_t) (temp___is_init_264 Bool) (temp___skip_constant_265 Bool) (temp___do_toplevel_266 Bool) (temp___do_typ_inv_267 Bool)) Bool
  (and
    (=>
      (not (= temp___skip_constant_265 true))
      (and
        (and
          (dynamic_property
            1
            (+ (length s1) (length s2))
            (first temp___expr_268)
            (last temp___expr_268))
          (= (first temp___expr_268) 1))
        (= (last temp___expr_268) (+ (length s1) (length s2)))))
    (=> (= temp___is_init_264 true) (= (first temp___expr_268) 1))))

;; "default_initial_assumption"
(define-fun default_initial_assumption ((temp___expr_271 us_t) (temp___skip_top_level_272 Bool)) Bool
  (and
    (= (first temp___expr_271) 1)
    (= (last temp___expr_271) (+ (length s1) (length s2)))))

;; "temp_____aggregate_def_617"
(declare-fun temp_____aggregate_def_617 (Int
  Int
  Int) us_t)

(declare-const rliteral integer)

;; "rliteral_axiom"
(assert (= (integerqtint rliteral) 0))

;; Goal "def'vc"
;; File "ghc_sort.ads", line 36, characters 0-0
(assert
  (not
  (forall ((r (Array Int integer)))
    (=>
      (dynamic_invariant s1 true false true true)
      (=>
        (dynamic_invariant s2 true false true true)
        (=>
          (and
            (and
              (< (length s1) (- 2147483647 (length s2)))
              (forall ((l Int))
                (=>
                  (and (<= 2 l) (<= l (last s1)))
                  (<= (to_rep (select (to_array s1) (- l 1))) (to_rep
                                                                (select 
                                                                (to_array
                                                                  s1) l))))))
            (forall ((l Int))
              (=>
                (and (<= 2 l) (<= l (last s2)))
                (<= (to_rep (select (to_array s2) (- l 1))) (to_rep
                                                              (select 
                                                              (to_array
                                                                s2) l))))))
          (forall ((j1 Int))
            (=>
              (= j1 1)
              (=>
                (in_range1 j1)
                (forall ((j2 Int))
                  (=>
                    (= j2 1)
                    (=>
                      (in_range1 j2)
                      (forall ((j Int))
                        (=>
                          (= j 1)
                          (=>
                            (in_range1 j)
                            (=>
                              (default_initial_assumption
                                (of_array
                                  r
                                  (to_rep r__first)
                                  (to_rep r__last))
                                false)
                              (=>
                                (dynamic_invariant1
                                  (of_array
                                    r
                                    (to_rep r__first)
                                    (to_rep r__last))
                                  false
                                  false
                                  true
                                  true)
                                (let ((o (+ (length s1) (length s2))))
                                  (forall ((temp___621 us_t))
                                    (=>
                                      (and
                                        (and
                                          (and
                                            (= (first temp___621) 1)
                                            (= (last temp___621) o))
                                          (forall ((temp___620 Int))
                                            (! (=>
                                                 (and
                                                   (<= (first temp___621) temp___620)
                                                   (<= temp___620 (last
                                                                    temp___621)))
                                                 (= (select (to_array
                                                              temp___621) temp___620) 
                                                 rliteral)) :pattern ((select 
                                            (to_array
                                              temp___621) temp___620)) )))
                                        (= temp___621 (temp_____aggregate_def_617
                                                        0
                                                        1
                                                        o)))
                                      (=>
                                        (= (first temp___621) 1)
                                        (=>
                                          (= (last temp___621) (+ (length s1) 
                                          (length
                                            s2)))
                                          (=>
                                            (= (first temp___621) 1)
                                            (=>
                                              (= (first temp___621) 1)
                                              (=>
                                                (ite (<= (first temp___621) 
                                                  (last
                                                    temp___621))
                                                  (and
                                                    (<= 1 (+ (length s1) 
                                                    (length
                                                      s2)))
                                                    (= (- (last temp___621) 
                                                    (first
                                                      temp___621)) (- (+ 
                                                    (length
                                                      s1) (length s2)) 1)))
                                                  (< (+ (length s1) (length
                                                                    s2)) 1))
                                                (forall ((o1 Int))
                                                  (=>
                                                    (= (to_rep r__last) o1)
                                                    (forall ((o2 Int))
                                                      (=>
                                                        (= (to_rep r__first) o2)
                                                        (=>
                                                          (ite (<= (first
                                                                    temp___621) 
                                                            (last
                                                              temp___621))
                                                            (and
                                                              (<= o2 o1)
                                                              (= (- (last
                                                                    temp___621) 
                                                              (first
                                                                temp___621)) (- o1 o2)))
                                                            (< o1 o2))
                                                          (forall ((r1 (Array Int integer)))
                                                            (=>
                                                              (= r1 (to_array
                                                                    temp___621))
                                                              (forall 
                                                                ((o3 Bool))
                                                                (=>
                                                                  (ite (= (and 
                                                                    (ite (<= 
                                                                    (first
                                                                    s1) j1)
                                                                    true
                                                                    false) 
                                                                    (ite (<= j1 
                                                                    (last
                                                                    s1))
                                                                    true
                                                                    false)) true)
                                                                    (= o3 (and 
                                                                    (ite (<= 
                                                                    (first
                                                                    s2) j2)
                                                                    true
                                                                    false) 
                                                                    (ite (<= j2 
                                                                    (last
                                                                    s2))
                                                                    true
                                                                    false)))
                                                                    (= o3 false))
                                                                  (=>
                                                                    (= o3 true)
                                                                    (forall 
                                                                    ((o4 Int))
                                                                    (=>
                                                                    (= 
                                                                    (to_rep
                                                                    r__last) o4)
                                                                    (forall 
                                                                    ((o5 Int))
                                                                    (=>
                                                                    (= 
                                                                    (to_rep
                                                                    r__first) o5)
                                                                    (=>
                                                                    (in_range
                                                                    (+ j1 j2))
                                                                    (forall 
                                                                    ((j11 Int) (j21 Int) (j3 Int) (r2 (Array Int integer)))
                                                                    (=>
                                                                    (and
                                                                    (= j3 (- (+ j11 j21) 1))
                                                                    (and
                                                                    (=>
                                                                    (< 1 j3)
                                                                    (<= 
                                                                    (to_rep
                                                                    (select r2 (- j3 1))) 
                                                                    (to_rep
                                                                    (select 
                                                                    (to_array
                                                                    s1) j11))))
                                                                    (and
                                                                    (=>
                                                                    (< 1 j3)
                                                                    (<= 
                                                                    (to_rep
                                                                    (select r2 (- j3 1))) 
                                                                    (to_rep
                                                                    (select 
                                                                    (to_array
                                                                    s2) j21))))
                                                                    (forall 
                                                                    ((l Int))
                                                                    (=>
                                                                    (and
                                                                    (<= 2 l)
                                                                    (<= l (- j3 1)))
                                                                    (<= 
                                                                    (to_rep
                                                                    (select r2 (- l 1))) 
                                                                    (to_rep
                                                                    (select r2 l))))))))
                                                                    (=>
                                                                    (= (and 
                                                                    (ite 
                                                                    (and
                                                                    (and
                                                                    (and
                                                                    (in_range1
                                                                    j11)
                                                                    (in_range1
                                                                    j21))
                                                                    (in_range1
                                                                    j3))
                                                                    (dynamic_invariant1
                                                                    (of_array
                                                                    r2
                                                                    (to_rep
                                                                    r__first)
                                                                    (to_rep
                                                                    r__last))
                                                                    false
                                                                    true
                                                                    true
                                                                    true))
                                                                    true
                                                                    false) 
                                                                    (ite 
                                                                    (and
                                                                    (and
                                                                    (<= 
                                                                    (first
                                                                    s1) j11)
                                                                    (<= j11 
                                                                    (last
                                                                    s1)))
                                                                    (and
                                                                    (<= 
                                                                    (first
                                                                    s2) j21)
                                                                    (<= j21 
                                                                    (last
                                                                    s2))))
                                                                    true
                                                                    false)) true)
                                                                    (forall 
                                                                    ((j12 Int) (j22 Int) (r3 (Array Int integer)))
                                                                    (=>
                                                                    (and
                                                                    (and
                                                                    (<= 
                                                                    (first
                                                                    s2) j21)
                                                                    (<= j21 
                                                                    (last
                                                                    s2)))
                                                                    (exists 
                                                                    ((o6 Int))
                                                                    (and
                                                                    (= 
                                                                    (to_rep
                                                                    (select 
                                                                    (to_array
                                                                    s2) j21)) o6)
                                                                    (and
                                                                    (and
                                                                    (<= 
                                                                    (first
                                                                    s1) j11)
                                                                    (<= j11 
                                                                    (last
                                                                    s1)))
                                                                    (exists 
                                                                    ((o7 Int))
                                                                    (and
                                                                    (= 
                                                                    (to_rep
                                                                    (select 
                                                                    (to_array
                                                                    s1) j11)) o7)
                                                                    (exists 
                                                                    ((spark__branch Bool))
                                                                    (and
                                                                    (= spark__branch 
                                                                    (ite (< o7 o6)
                                                                    true
                                                                    false))
                                                                    (ite (= spark__branch true)
                                                                    (and
                                                                    (exists 
                                                                    ((o8 Int))
                                                                    (and
                                                                    (= 
                                                                    (to_rep
                                                                    r__last) o8)
                                                                    (exists 
                                                                    ((o9 Int))
                                                                    (and
                                                                    (= 
                                                                    (to_rep
                                                                    r__first) o9)
                                                                    (and
                                                                    (and
                                                                    (<= 
                                                                    (first
                                                                    s1) j11)
                                                                    (<= j11 
                                                                    (last
                                                                    s1)))
                                                                    (exists 
                                                                    ((o10 Int))
                                                                    (and
                                                                    (= 
                                                                    (to_rep
                                                                    (select 
                                                                    (to_array
                                                                    s1) j11)) o10)
                                                                    (exists 
                                                                    ((o11 integer))
                                                                    (and
                                                                    (= 
                                                                    (to_rep
                                                                    o11) o10)
                                                                    (and
                                                                    (and
                                                                    (<= o9 j3)
                                                                    (<= j3 o8))
                                                                    (let ((temp___632 
                                                                    (us_tqtmk
                                                                    (store r2 j3 o11)
                                                                    (rt
                                                                    (of_array
                                                                    r2
                                                                    o9
                                                                    o8)))))
                                                                    (and
                                                                    (= 
                                                                    (first
                                                                    temp___632) 1)
                                                                    (and
                                                                    (= r3 
                                                                    (to_array
                                                                    temp___632))
                                                                    (let ((o12 (+ j11 1)))
                                                                    (and
                                                                    (in_range
                                                                    o12)
                                                                    (= j12 o12))))))))))))))))
                                                                    (= j22 j21))
                                                                    (and
                                                                    (exists 
                                                                    ((o8 Int))
                                                                    (and
                                                                    (= 
                                                                    (to_rep
                                                                    r__last) o8)
                                                                    (exists 
                                                                    ((o9 Int))
                                                                    (and
                                                                    (= 
                                                                    (to_rep
                                                                    r__first) o9)
                                                                    (and
                                                                    (and
                                                                    (<= 
                                                                    (first
                                                                    s2) j21)
                                                                    (<= j21 
                                                                    (last
                                                                    s2)))
                                                                    (exists 
                                                                    ((o10 Int))
                                                                    (and
                                                                    (= 
                                                                    (to_rep
                                                                    (select 
                                                                    (to_array
                                                                    s2) j21)) o10)
                                                                    (exists 
                                                                    ((o11 integer))
                                                                    (and
                                                                    (= 
                                                                    (to_rep
                                                                    o11) o10)
                                                                    (and
                                                                    (and
                                                                    (<= o9 j3)
                                                                    (<= j3 o8))
                                                                    (let ((temp___638 
                                                                    (us_tqtmk
                                                                    (store r2 j3 o11)
                                                                    (rt
                                                                    (of_array
                                                                    r2
                                                                    o9
                                                                    o8)))))
                                                                    (and
                                                                    (= 
                                                                    (first
                                                                    temp___638) 1)
                                                                    (and
                                                                    (= r3 
                                                                    (to_array
                                                                    temp___638))
                                                                    (let ((o12 (+ j21 1)))
                                                                    (and
                                                                    (in_range
                                                                    o12)
                                                                    (= j22 o12))))))))))))))))
                                                                    (= j12 j11)))))))))))
                                                                    (let ((o6 (+ j3 1)))
                                                                    (=>
                                                                    (in_range
                                                                    o6)
                                                                    (forall 
                                                                    ((j4 Int))
                                                                    (=>
                                                                    (= j4 o6)
                                                                    (forall 
                                                                    ((o7 Bool))
                                                                    (=>
                                                                    (ite (= (and 
                                                                    (ite (<= 
                                                                    (first
                                                                    s1) j12)
                                                                    true
                                                                    false) 
                                                                    (ite (<= j12 
                                                                    (last
                                                                    s1))
                                                                    true
                                                                    false)) true)
                                                                    (= o7 (and 
                                                                    (ite (<= 
                                                                    (first
                                                                    s2) j22)
                                                                    true
                                                                    false) 
                                                                    (ite (<= j22 
                                                                    (last
                                                                    s2))
                                                                    true
                                                                    false)))
                                                                    (= o7 false))
                                                                    (=>
                                                                    (= o7 true)
                                                                    (=>
                                                                    (in_range
                                                                    (+ j12 j22))
                                                                    (=>
                                                                    (or
                                                                    (< j11 j12)
                                                                    (and
                                                                    (= j12 j11)
                                                                    (< j21 j22)))
                                                                    (=>
                                                                    (= j4 (- (+ j12 j22) 1))
                                                                    (=>
                                                                    (=>
                                                                    (< 1 j4)
                                                                    (<= 
                                                                    (to_rep
                                                                    (select r3 (- j4 1))) 
                                                                    (to_rep
                                                                    (select 
                                                                    (to_array
                                                                    s1) j12))))
                                                                    (=>
                                                                    (=>
                                                                    (< 1 j4)
                                                                    (<= 
                                                                    (to_rep
                                                                    (select r3 (- j4 1))) 
                                                                    (to_rep
                                                                    (select 
                                                                    (to_array
                                                                    s2) j22))))
                                                                    (forall 
                                                                    ((l Int))
                                                                    (=>
                                                                    (and
                                                                    (<= 2 l)
                                                                    (<= l (- j4 1)))
                                                                    (<= 
                                                                    (to_rep
                                                                    (select r3 (- l 1))) 
                                                                    (to_rep
                                                                    (select r3 l))))))))))))))))))))))))))))))))))))))))))))))))))))))))))))))

(check-sat)
(get-info :reason-unknown)
